c "985067.clq"
p edge 140 544
e 1 5
e 1 6
e 1 7
e 1 9
e 1 16
e 1 37
e 1 45
e 1 70
e 1 94
e 1 104
e 1 106
e 1 108
e 1 120
e 1 127
e 2 5
e 2 6
e 2 7
e 2 10
e 2 12
e 2 13
e 2 17
e 2 21
e 2 23
e 2 29
e 2 31
e 2 32
e 2 35
e 2 36
e 2 39
e 2 47
e 2 50
e 2 53
e 2 56
e 2 59
e 2 62
e 2 64
e 2 65
e 2 70
e 2 71
e 2 74
e 2 75
e 2 77
e 2 80
e 2 86
e 2 89
e 2 90
e 2 95
e 2 103
e 2 116
e 2 117
e 2 136
e 3 5
e 3 8
e 3 20
e 3 33
e 3 36
e 3 37
e 3 38
e 3 54
e 3 68
e 3 92
e 3 100
e 3 124
e 4 5
e 4 6
e 4 7
e 4 8
e 4 9
e 4 10
e 4 11
e 4 18
e 4 20
e 4 21
e 4 27
e 4 29
e 4 32
e 4 37
e 4 55
e 4 57
e 4 58
e 4 59
e 4 71
e 4 86
e 4 93
e 4 95
e 4 97
e 4 98
e 4 105
e 4 107
e 4 108
e 5 6
e 5 7
e 5 9
e 5 10
e 5 12
e 5 14
e 5 15
e 5 16
e 5 18
e 5 19
e 5 20
e 5 23
e 5 24
e 5 25
e 5 26
e 5 27
e 5 29
e 5 30
e 5 31
e 5 36
e 5 38
e 5 45
e 5 50
e 5 51
e 5 52
e 5 56
e 5 57
e 5 65
e 5 66
e 5 69
e 5 70
e 5 72
e 5 73
e 5 76
e 5 77
e 5 82
e 5 84
e 5 87
e 5 88
e 5 89
e 5 90
e 5 92
e 5 115
e 5 118
e 5 121
e 5 122
e 5 126
e 5 130
e 5 134
e 5 137
e 6 8
e 6 9
e 6 12
e 6 13
e 6 14
e 6 17
e 6 18
e 6 21
e 6 31
e 6 34
e 6 35
e 6 38
e 6 43
e 6 44
e 6 48
e 6 54
e 6 57
e 6 67
e 6 68
e 6 73
e 6 75
e 6 78
e 6 86
e 6 89
e 6 91
e 6 92
e 6 100
e 6 102
e 6 105
e 6 121
e 6 125
e 6 126
e 6 139
e 7 8
e 7 10
e 7 11
e 7 13
e 7 15
e 7 22
e 7 23
e 7 28
e 7 35
e 7 36
e 7 39
e 7 55
e 7 59
e 7 60
e 7 61
e 7 62
e 7 66
e 7 69
e 7 74
e 7 87
e 7 90
e 7 101
e 7 105
e 7 109
e 7 121
e 7 127
e 7 131
e 7 139
e 8 11
e 8 13
e 8 14
e 8 15
e 8 17
e 8 22
e 8 23
e 8 24
e 8 25
e 8 26
e 8 31
e 8 33
e 8 44
e 8 46
e 8 49
e 8 52
e 8 58
e 8 60
e 8 80
e 8 119
e 8 124
e 8 134
e 9 18
e 9 19
e 9 27
e 9 30
e 9 33
e 9 40
e 9 41
e 9 52
e 9 59
e 9 70
e 9 88
e 9 120
e 9 125
e 10 11
e 10 12
e 10 26
e 10 34
e 10 40
e 10 45
e 10 65
e 10 69
e 10 87
e 10 110
e 10 125
e 11 28
e 11 64
e 11 81
e 11 96
e 11 103
e 12 16
e 12 34
e 12 42
e 12 44
e 12 53
e 12 96
e 12 101
e 12 114
e 12 130
e 12 133
e 13 14
e 13 15
e 13 16
e 13 21
e 13 27
e 13 33
e 13 34
e 13 39
e 13 40
e 13 46
e 13 50
e 13 52
e 13 61
e 13 62
e 13 64
e 13 85
e 13 109
e 13 112
e 13 115
e 14 19
e 14 24
e 14 26
e 14 28
e 14 32
e 14 38
e 14 54
e 14 55
e 14 63
e 14 72
e 14 76
e 14 77
e 14 80
e 14 85
e 14 91
e 14 94
e 14 98
e 14 99
e 14 106
e 14 128
e 14 137
e 14 140
e 15 57
e 15 102
e 15 135
e 16 17
e 16 24
e 16 25
e 16 29
e 16 44
e 16 51
e 16 66
e 16 68
e 17 51
e 17 129
e 18 19
e 18 20
e 18 25
e 18 28
e 18 43
e 18 48
e 18 58
e 18 60
e 18 67
e 18 86
e 18 97
e 18 110
e 18 135
e 19 22
e 19 35
e 19 42
e 19 79
e 20 79
e 20 93
e 20 105
e 21 22
e 21 62
e 21 81
e 21 112
e 22 69
e 23 84
e 23 102
e 23 129
e 24 66
e 24 75
e 24 119
e 25 30
e 25 41
e 25 46
e 25 49
e 25 54
e 25 87
e 25 97
e 25 104
e 26 30
e 26 42
e 26 43
e 26 51
e 26 76
e 27 98
e 27 101
e 27 111
e 28 61
e 28 63
e 28 75
e 28 76
e 28 94
e 28 110
e 28 113
e 29 37
e 29 45
e 29 47
e 29 56
e 29 114
e 30 49
e 30 74
e 30 138
e 31 32
e 31 135
e 32 41
e 32 81
e 32 119
e 33 39
e 33 67
e 33 82
e 33 111
e 33 132
e 34 40
e 34 47
e 35 90
e 35 103
e 35 111
e 35 128
e 35 134
e 35 137
e 36 67
e 36 72
e 37 41
e 37 42
e 37 48
e 37 50
e 37 63
e 37 64
e 37 68
e 37 95
e 37 99
e 37 106
e 37 113
e 37 137
e 39 48
e 39 72
e 39 99
e 39 118
e 39 129
e 40 43
e 40 56
e 40 99
e 40 114
e 42 71
e 42 111
e 43 55
e 43 83
e 44 46
e 44 47
e 44 49
e 44 53
e 44 60
e 44 65
e 44 126
e 46 77
e 46 97
e 47 73
e 47 112
e 48 63
e 48 78
e 48 108
e 48 123
e 48 132
e 49 108
e 49 120
e 50 88
e 51 53
e 51 82
e 51 93
e 51 100
e 51 101
e 51 125
e 52 78
e 52 79
e 52 104
e 52 107
e 52 115
e 55 73
e 55 94
e 55 96
e 55 129
e 56 109
e 57 58
e 57 61
e 57 74
e 57 84
e 57 123
e 57 140
e 59 140
e 60 71
e 60 131
e 60 138
e 60 140
e 61 83
e 61 109
e 61 120
e 62 81
e 62 83
e 62 133
e 63 82
e 64 83
e 64 138
e 65 88
e 65 93
e 65 107
e 65 123
e 66 84
e 66 95
e 66 118
e 66 138
e 66 139
e 67 133
e 69 85
e 71 124
e 71 127
e 72 103
e 72 104
e 72 133
e 72 139
e 73 113
e 74 107
e 74 115
e 74 123
e 76 79
e 76 89
e 76 132
e 76 136
e 77 78
e 77 98
e 78 80
e 79 91
e 80 131
e 81 113
e 81 128
e 83 85
e 83 91
e 83 92
e 83 106
e 84 117
e 85 122
e 89 96
e 89 128
e 90 110
e 90 112
e 90 117
e 90 130
e 91 102
e 91 117
e 92 135
e 94 100
e 94 122
e 96 121
e 99 124
e 101 114
e 102 136
e 104 116
e 105 126
e 106 130
e 107 116
e 109 118
e 112 131
e 113 116
e 113 127
e 115 119
e 115 122
e 116 136
e 122 132
e 124 134
